lbl,CUST NO.,READY TIME,XCOORD.,YCOORD.,DEMAND,DUE DATE,SERVICE TIME
0,14,0,100,106,10,1215,90
0,15,0,99,112,20,1210,90
0,26,0,102,104,20,1215,90
0,40,0,104,106,20,1212,90
0,59,0,99,108,20,1214,90
0,89,0,103,111,20,1209,90
0,105,0,102,110,10,1210,90
0,152,0,103,106,30,1213,90
0,169,0,105,110,20,1208,90
0,153,472,107,105,10,539,90
0,198,1038,101,107,10,1090,90
